peakDumbCharging = 18500; 
Machine = anon_enum(16); 
machineSpeed = [3700,3700,3700,3700,3700,3700,3700,3700,3700,3700,3700,3700,3700,3700,3700,3700]; 
machineLoad = [3700,3700,3700,3700,3700,3700,3700,3700,3700,3700,3700,3700,3700,3700,3700,3700]; 
Car = anon_enum(14); 
demandCar = [9800,5760,17240,32400,1080,6360,3000,5360,4800,4200,11280,3600,15560,7280]; 
arrivalCar = [70,58,58,57,57,56,56,53,50,50,49,49,44,43]; 
departureCar = [73,62,64,70,59,59,58,57,56,53,55,51,51,47]; 
